
Gurobi 10.0.0 (linux64) logging started Wed Nov 16 06:52:26 2022

Set parameter LogFile to value "../results/k03_n100_d005/k03_n100_d009_band100_4_RP-MILO_log.txt"
Set parameter LazyConstraints to value 1
Gurobi Optimizer version 10.0.0 build v10.0.0rc2 (linux64)

CPU model: Intel(R) Xeon(R) CPU E5-2630 v4 @ 2.20GHz, instruction set [SSE2|AVX|AVX2]
Thread count: 20 physical cores, 40 logical processors, using up to 10 threads

Optimize a model with 5700 rows, 485 columns and 17100 nonzeros
Model fingerprint: 0x46ca1f60
Coefficient statistics:
  Matrix range     [1e+00, 1e+00]
  Objective range  [1e+00, 1e+00]
  Bounds range     [1e+00, 1e+00]
  RHS range        [1e+00, 1e+00]
Presolve time: 0.01s
Presolved: 2880 rows, 485 columns, 8640 nonzeros

Iteration    Objective       Primal Inf.    Dual Inf.      Time
       0    1.5400000e+02   1.990000e+02   0.000000e+00      0s
     396    1.3463329e+02   0.000000e+00   0.000000e+00      0s

Solved in 396 iterations and 0.02 seconds (0.01 work units)
Optimal objective  1.346332855e+02
Gurobi Optimizer version 10.0.0 build v10.0.0rc2 (linux64)

CPU model: Intel(R) Xeon(R) CPU E5-2630 v4 @ 2.20GHz, instruction set [SSE2|AVX|AVX2]
Thread count: 20 physical cores, 40 logical processors, using up to 10 threads

Optimize a model with 5716 rows, 485 columns and 17196 nonzeros
Coefficient statistics:
  Matrix range     [1e+00, 1e+00]
  Objective range  [1e+00, 1e+00]
  Bounds range     [1e+00, 1e+00]
  RHS range        [1e+00, 1e+00]
Iteration    Objective       Primal Inf.    Dual Inf.      Time
       0    1.3463329e+02   1.584375e+01   0.000000e+00      0s
      74    1.3226701e+02   0.000000e+00   0.000000e+00      0s

Solved in 74 iterations and 0.02 seconds (0.02 work units)
Optimal objective  1.322670076e+02
Gurobi Optimizer version 10.0.0 build v10.0.0rc2 (linux64)

CPU model: Intel(R) Xeon(R) CPU E5-2630 v4 @ 2.20GHz, instruction set [SSE2|AVX|AVX2]
Thread count: 20 physical cores, 40 logical processors, using up to 10 threads

Optimize a model with 5717 rows, 485 columns and 17202 nonzeros
Coefficient statistics:
  Matrix range     [1e+00, 1e+00]
  Objective range  [1e+00, 1e+00]
  Bounds range     [1e+00, 1e+00]
  RHS range        [1e+00, 1e+00]
Iteration    Objective       Primal Inf.    Dual Inf.      Time
       0    1.3226701e+02   9.305556e-01   0.000000e+00      0s
       9    1.3203169e+02   0.000000e+00   0.000000e+00      0s

Solved in 9 iterations and 0.00 seconds (0.00 work units)
Optimal objective  1.320316935e+02
Gurobi Optimizer version 10.0.0 build v10.0.0rc2 (linux64)

CPU model: Intel(R) Xeon(R) CPU E5-2630 v4 @ 2.20GHz, instruction set [SSE2|AVX|AVX2]
Thread count: 20 physical cores, 40 logical processors, using up to 10 threads

Optimize a model with 5747 rows, 485 columns and 17382 nonzeros
Coefficient statistics:
  Matrix range     [1e+00, 1e+00]
  Objective range  [1e+00, 1e+00]
  Bounds range     [1e+00, 1e+00]
  RHS range        [1e+00, 1e+00]
Iteration    Objective       Primal Inf.    Dual Inf.      Time
       0    1.3203169e+02   2.577217e+01   0.000000e+00      0s
     214    1.2469974e+02   0.000000e+00   0.000000e+00      0s

Solved in 214 iterations and 0.04 seconds (0.06 work units)
Optimal objective  1.246997438e+02
Gurobi Optimizer version 10.0.0 build v10.0.0rc2 (linux64)

CPU model: Intel(R) Xeon(R) CPU E5-2630 v4 @ 2.20GHz, instruction set [SSE2|AVX|AVX2]
Thread count: 20 physical cores, 40 logical processors, using up to 10 threads

Optimize a model with 5751 rows, 485 columns and 17406 nonzeros
Coefficient statistics:
  Matrix range     [1e+00, 1e+00]
  Objective range  [1e+00, 1e+00]
  Bounds range     [1e+00, 1e+00]
  RHS range        [1e+00, 1e+00]
Iteration    Objective       Primal Inf.    Dual Inf.      Time
       0    1.2469974e+02   2.641800e+00   0.000000e+00      0s
      60    1.2388196e+02   0.000000e+00   0.000000e+00      0s

Solved in 60 iterations and 0.02 seconds (0.02 work units)
Optimal objective  1.238819619e+02
Gurobi Optimizer version 10.0.0 build v10.0.0rc2 (linux64)

CPU model: Intel(R) Xeon(R) CPU E5-2630 v4 @ 2.20GHz, instruction set [SSE2|AVX|AVX2]
Thread count: 20 physical cores, 40 logical processors, using up to 10 threads

Optimize a model with 5752 rows, 485 columns and 17412 nonzeros
Coefficient statistics:
  Matrix range     [1e+00, 1e+00]
  Objective range  [1e+00, 1e+00]
  Bounds range     [1e+00, 1e+00]
  RHS range        [1e+00, 1e+00]
Iteration    Objective       Primal Inf.    Dual Inf.      Time
       0    1.2388196e+02   6.890675e-01   0.000000e+00      0s
      22    1.2378672e+02   0.000000e+00   0.000000e+00      0s

Solved in 22 iterations and 0.01 seconds (0.01 work units)
Optimal objective  1.237867214e+02
Gurobi Optimizer version 10.0.0 build v10.0.0rc2 (linux64)

CPU model: Intel(R) Xeon(R) CPU E5-2630 v4 @ 2.20GHz, instruction set [SSE2|AVX|AVX2]
Thread count: 20 physical cores, 40 logical processors, using up to 10 threads

Optimize a model with 5755 rows, 485 columns and 17430 nonzeros
Coefficient statistics:
  Matrix range     [1e+00, 1e+00]
  Objective range  [1e+00, 1e+00]
  Bounds range     [1e+00, 1e+00]
  RHS range        [1e+00, 1e+00]
Iteration    Objective       Primal Inf.    Dual Inf.      Time
       0    1.2378672e+02   1.642572e+00   0.000000e+00      0s
      42    1.2321277e+02   0.000000e+00   0.000000e+00      0s

Solved in 42 iterations and 0.01 seconds (0.02 work units)
Optimal objective  1.232127695e+02
